#######################
Slurm job id: 17497813_127
Running on machine: p77
Running cmd: /nfs/shared/static-builds/gurobi1003 SOFTMEMLIMIT=125 MIPFocus=3 Presolve=1 TimeLimit=300 seed=6 /nfs/models/miplib2010/k16x240.mps.bz2
#######################
Set parameter TimeLimit to value 300
Set parameter SoftMemLimit to value 125
Set parameter MIPFocus to value 3
Set parameter LogFile to value 1003-MIPFocus3-Presolve1-TimeLimit300-k16x240-6.log
Set parameter Presolve to value 1
Set parameter Seed to value 6
Using license file /opt/gurobi/gurobi.lic

Gurobi Optimizer version 10.0.3 build v10.0.3rc0 (linux64)
Copyright (c) 2023, Gurobi Optimization, LLC

Read MPS format model from file /nfs/models/miplib2010/k16x240.mps.bz2
Reading time = 0.00 seconds
k16x240: 256 rows, 480 columns, 960 nonzeros

CPU model: Intel(R) Xeon(R) E-2388G CPU @ 3.20GHz, instruction set [SSE2|AVX|AVX2|AVX512]
Thread count: 8 physical cores, 16 logical processors, using up to 16 threads

Optimize a model with 256 rows, 480 columns and 960 nonzeros
Model fingerprint: 0x4e80885f
Variable types: 240 continuous, 240 integer (240 binary)
Coefficient statistics:
  Matrix range     [1e+00, 1e+03]
  Objective range  [1e+00, 1e+03]
  Bounds range     [1e+00, 1e+03]
  RHS range        [4e+00, 4e+02]
Found heuristic solution: objective 19315.000000
Presolve time: 0.00s
Presolved: 256 rows, 480 columns, 960 nonzeros
Variable types: 240 continuous, 240 integer (240 binary)

Root relaxation: objective 2.769838e+03, 51 iterations, 0.00 seconds (0.00 work units)

    Nodes    |    Current Node    |     Objective Bounds      |     Work
 Expl Unexpl |  Obj  Depth IntInf | Incumbent    BestBd   Gap | It/Node Time

     0     0 2769.83800    0   14 19315.0000 2769.83800  85.7%     -    0s
H    0     0                    11359.000000 2769.83800  75.6%     -    0s
H    0     0                    11195.000000 2769.83800  75.3%     -    0s
H    0     0                    11074.000000 8116.87580  26.7%     -    0s
H    0     0                    10916.000000 8116.87580  25.6%     -    0s
     0     0 8116.87580    0   26 10916.0000 8116.87580  25.6%     -    0s
H    0     0                    10826.000000 8116.87580  25.0%     -    0s
     0     0 8742.09840    0   28 10826.0000 8742.09840  19.2%     -    0s
     0     0 8896.08201    0   25 10826.0000 8896.08201  17.8%     -    0s
     0     0 8901.59669    0   35 10826.0000 8901.59669  17.8%     -    0s
     0     0 8901.59669    0   37 10826.0000 8901.59669  17.8%     -    0s
     0     0 8915.83459    0   35 10826.0000 8915.83459  17.6%     -    0s
     0     0 8916.56684    0   35 10826.0000 8916.56684  17.6%     -    0s
     0     0 9068.62925    0   32 10826.0000 9068.62925  16.2%     -    0s
     0     0 9085.21149    0   31 10826.0000 9085.21149  16.1%     -    0s
H    0     0                    10794.000000 9098.29937  15.7%     -    0s
     0     0 9158.52555    0   31 10794.0000 9158.52555  15.2%     -    0s
     0     0 9188.36227    0   31 10794.0000 9188.36227  14.9%     -    0s
H    0     0                    10779.000000 9188.36227  14.8%     -    0s
H    0     0                    10678.000000 9188.36227  14.0%     -    0s
     0     2 9188.36227    0   31 10678.0000 9188.36227  14.0%     -    0s
H 1675  1547                    10674.000000 9743.45109  8.72%  44.5    2s
  4420  3294 10385.6340   29   19 10674.0000 10245.8650  4.01%  82.6    5s
 18347 10905     cutoff   56      10674.0000 10467.9336  1.93%  60.5   10s
 46851  8869 10633.2019   36   19 10674.0000 10619.3182  0.51%  41.3   15s

Cutting planes:
  Gomory: 2
  Lift-and-project: 5
  Implied bound: 8
  MIR: 127
  Flow cover: 507
  Flow path: 46
  Zero half: 33
  Network: 21
  Relax-and-lift: 1

Explored 60473 nodes (2098899 simplex iterations) in 16.15 seconds (21.88 work units)
Thread count was 16 (of 16 available processors)

Solution count 10: 10674 10678 10779 ... 19315

Optimal solution found (tolerance 1.00e-04)
Best objective 1.067400000000e+04, best bound 1.067311361678e+04, gap 0.0083%
